auto_projections = .true.
conv_tol =   2.0000000000d-07
conv_window = 3
dis_conv_tol =   2.0000000000d-07
dis_num_iter = 0
fermi_energy =   6.0992000000d+00
mp_grid = 11, 11, 11
num_bands = 16
num_cg_steps = 200
num_iter = 4000
num_wann = 8
postproc_setup = .true.
write_hr = .true.
write_tb = .true.
write_xyz = .true.

begin atoms_cart
ang
Si         0.0000000000       0.0000000000       0.0000000000 
Si        -1.3576305934       1.3576305934       1.3576305934 
end atoms_cart

begin kpoints
      0.0000000000       0.0000000000       0.0000000000
      0.0000000000       0.0000000000       0.0909090909
      0.0000000000       0.0000000000       0.1818181818
      0.0000000000       0.0000000000       0.2727272727
      0.0000000000       0.0000000000       0.3636363636
      0.0000000000       0.0000000000       0.4545454545
      0.0000000000       0.0000000000       0.5454545455
      0.0000000000       0.0000000000       0.6363636364
      0.0000000000       0.0000000000       0.7272727273
      0.0000000000       0.0000000000       0.8181818182
      0.0000000000       0.0000000000       0.9090909091
      0.0000000000       0.0909090909       0.0000000000
      0.0000000000       0.0909090909       0.0909090909
      0.0000000000       0.0909090909       0.1818181818
      0.0000000000       0.0909090909       0.2727272727
      0.0000000000       0.0909090909       0.3636363636
      0.0000000000       0.0909090909       0.4545454545
      0.0000000000       0.0909090909       0.5454545455
      0.0000000000       0.0909090909       0.6363636364
      0.0000000000       0.0909090909       0.7272727273
      0.0000000000       0.0909090909       0.8181818182
      0.0000000000       0.0909090909       0.9090909091
      0.0000000000       0.1818181818       0.0000000000
      0.0000000000       0.1818181818       0.0909090909
      0.0000000000       0.1818181818       0.1818181818
      0.0000000000       0.1818181818       0.2727272727
      0.0000000000       0.1818181818       0.3636363636
      0.0000000000       0.1818181818       0.4545454545
      0.0000000000       0.1818181818       0.5454545455
      0.0000000000       0.1818181818       0.6363636364
      0.0000000000       0.1818181818       0.7272727273
      0.0000000000       0.1818181818       0.8181818182
      0.0000000000       0.1818181818       0.9090909091
      0.0000000000       0.2727272727       0.0000000000
      0.0000000000       0.2727272727       0.0909090909
      0.0000000000       0.2727272727       0.1818181818
      0.0000000000       0.2727272727       0.2727272727
      0.0000000000       0.2727272727       0.3636363636
      0.0000000000       0.2727272727       0.4545454545
      0.0000000000       0.2727272727       0.5454545455
      0.0000000000       0.2727272727       0.6363636364
      0.0000000000       0.2727272727       0.7272727273
      0.0000000000       0.2727272727       0.8181818182
      0.0000000000       0.2727272727       0.9090909091
      0.0000000000       0.3636363636       0.0000000000
      0.0000000000       0.3636363636       0.0909090909
      0.0000000000       0.3636363636       0.1818181818
      0.0000000000       0.3636363636       0.2727272727
      0.0000000000       0.3636363636       0.3636363636
      0.0000000000       0.3636363636       0.4545454545
      0.0000000000       0.3636363636       0.5454545455
      0.0000000000       0.3636363636       0.6363636364
      0.0000000000       0.3636363636       0.7272727273
      0.0000000000       0.3636363636       0.8181818182
      0.0000000000       0.3636363636       0.9090909091
      0.0000000000       0.4545454545       0.0000000000
      0.0000000000       0.4545454545       0.0909090909
      0.0000000000       0.4545454545       0.1818181818
      0.0000000000       0.4545454545       0.2727272727
      0.0000000000       0.4545454545       0.3636363636
      0.0000000000       0.4545454545       0.4545454545
      0.0000000000       0.4545454545       0.5454545455
      0.0000000000       0.4545454545       0.6363636364
      0.0000000000       0.4545454545       0.7272727273
      0.0000000000       0.4545454545       0.8181818182
      0.0000000000       0.4545454545       0.9090909091
      0.0000000000       0.5454545455       0.0000000000
      0.0000000000       0.5454545455       0.0909090909
      0.0000000000       0.5454545455       0.1818181818
      0.0000000000       0.5454545455       0.2727272727
      0.0000000000       0.5454545455       0.3636363636
      0.0000000000       0.5454545455       0.4545454545
      0.0000000000       0.5454545455       0.5454545455
      0.0000000000       0.5454545455       0.6363636364
      0.0000000000       0.5454545455       0.7272727273
      0.0000000000       0.5454545455       0.8181818182
      0.0000000000       0.5454545455       0.9090909091
      0.0000000000       0.6363636364       0.0000000000
      0.0000000000       0.6363636364       0.0909090909
      0.0000000000       0.6363636364       0.1818181818
      0.0000000000       0.6363636364       0.2727272727
      0.0000000000       0.6363636364       0.3636363636
      0.0000000000       0.6363636364       0.4545454545
      0.0000000000       0.6363636364       0.5454545455
      0.0000000000       0.6363636364       0.6363636364
      0.0000000000       0.6363636364       0.7272727273
      0.0000000000       0.6363636364       0.8181818182
      0.0000000000       0.6363636364       0.9090909091
      0.0000000000       0.7272727273       0.0000000000
      0.0000000000       0.7272727273       0.0909090909
      0.0000000000       0.7272727273       0.1818181818
      0.0000000000       0.7272727273       0.2727272727
      0.0000000000       0.7272727273       0.3636363636
      0.0000000000       0.7272727273       0.4545454545
      0.0000000000       0.7272727273       0.5454545455
      0.0000000000       0.7272727273       0.6363636364
      0.0000000000       0.7272727273       0.7272727273
      0.0000000000       0.7272727273       0.8181818182
      0.0000000000       0.7272727273       0.9090909091
      0.0000000000       0.8181818182       0.0000000000
      0.0000000000       0.8181818182       0.0909090909
      0.0000000000       0.8181818182       0.1818181818
      0.0000000000       0.8181818182       0.2727272727
      0.0000000000       0.8181818182       0.3636363636
      0.0000000000       0.8181818182       0.4545454545
      0.0000000000       0.8181818182       0.5454545455
      0.0000000000       0.8181818182       0.6363636364
      0.0000000000       0.8181818182       0.7272727273
      0.0000000000       0.8181818182       0.8181818182
      0.0000000000       0.8181818182       0.9090909091
      0.0000000000       0.9090909091       0.0000000000
      0.0000000000       0.9090909091       0.0909090909
      0.0000000000       0.9090909091       0.1818181818
      0.0000000000       0.9090909091       0.2727272727
      0.0000000000       0.9090909091       0.3636363636
      0.0000000000       0.9090909091       0.4545454545
      0.0000000000       0.9090909091       0.5454545455
      0.0000000000       0.9090909091       0.6363636364
      0.0000000000       0.9090909091       0.7272727273
      0.0000000000       0.9090909091       0.8181818182
      0.0000000000       0.9090909091       0.9090909091
      0.0909090909       0.0000000000       0.0000000000
      0.0909090909       0.0000000000       0.0909090909
      0.0909090909       0.0000000000       0.1818181818
      0.0909090909       0.0000000000       0.2727272727
      0.0909090909       0.0000000000       0.3636363636
      0.0909090909       0.0000000000       0.4545454545
      0.0909090909       0.0000000000       0.5454545455
      0.0909090909       0.0000000000       0.6363636364
      0.0909090909       0.0000000000       0.7272727273
      0.0909090909       0.0000000000       0.8181818182
      0.0909090909       0.0000000000       0.9090909091
      0.0909090909       0.0909090909       0.0000000000
      0.0909090909       0.0909090909       0.0909090909
      0.0909090909       0.0909090909       0.1818181818
      0.0909090909       0.0909090909       0.2727272727
      0.0909090909       0.0909090909       0.3636363636
      0.0909090909       0.0909090909       0.4545454545
      0.0909090909       0.0909090909       0.5454545455
      0.0909090909       0.0909090909       0.6363636364
      0.0909090909       0.0909090909       0.7272727273
      0.0909090909       0.0909090909       0.8181818182
      0.0909090909       0.0909090909       0.9090909091
      0.0909090909       0.1818181818       0.0000000000
      0.0909090909       0.1818181818       0.0909090909
      0.0909090909       0.1818181818       0.1818181818
      0.0909090909       0.1818181818       0.2727272727
      0.0909090909       0.1818181818       0.3636363636
      0.0909090909       0.1818181818       0.4545454545
      0.0909090909       0.1818181818       0.5454545455
      0.0909090909       0.1818181818       0.6363636364
      0.0909090909       0.1818181818       0.7272727273
      0.0909090909       0.1818181818       0.8181818182
      0.0909090909       0.1818181818       0.9090909091
      0.0909090909       0.2727272727       0.0000000000
      0.0909090909       0.2727272727       0.0909090909
      0.0909090909       0.2727272727       0.1818181818
      0.0909090909       0.2727272727       0.2727272727
      0.0909090909       0.2727272727       0.3636363636
      0.0909090909       0.2727272727       0.4545454545
      0.0909090909       0.2727272727       0.5454545455
      0.0909090909       0.2727272727       0.6363636364
      0.0909090909       0.2727272727       0.7272727273
      0.0909090909       0.2727272727       0.8181818182
      0.0909090909       0.2727272727       0.9090909091
      0.0909090909       0.3636363636       0.0000000000
      0.0909090909       0.3636363636       0.0909090909
      0.0909090909       0.3636363636       0.1818181818
      0.0909090909       0.3636363636       0.2727272727
      0.0909090909       0.3636363636       0.3636363636
      0.0909090909       0.3636363636       0.4545454545
      0.0909090909       0.3636363636       0.5454545455
      0.0909090909       0.3636363636       0.6363636364
      0.0909090909       0.3636363636       0.7272727273
      0.0909090909       0.3636363636       0.8181818182
      0.0909090909       0.3636363636       0.9090909091
      0.0909090909       0.4545454545       0.0000000000
      0.0909090909       0.4545454545       0.0909090909
      0.0909090909       0.4545454545       0.1818181818
      0.0909090909       0.4545454545       0.2727272727
      0.0909090909       0.4545454545       0.3636363636
      0.0909090909       0.4545454545       0.4545454545
      0.0909090909       0.4545454545       0.5454545455
      0.0909090909       0.4545454545       0.6363636364
      0.0909090909       0.4545454545       0.7272727273
      0.0909090909       0.4545454545       0.8181818182
      0.0909090909       0.4545454545       0.9090909091
      0.0909090909       0.5454545455       0.0000000000
      0.0909090909       0.5454545455       0.0909090909
      0.0909090909       0.5454545455       0.1818181818
      0.0909090909       0.5454545455       0.2727272727
      0.0909090909       0.5454545455       0.3636363636
      0.0909090909       0.5454545455       0.4545454545
      0.0909090909       0.5454545455       0.5454545455
      0.0909090909       0.5454545455       0.6363636364
      0.0909090909       0.5454545455       0.7272727273
      0.0909090909       0.5454545455       0.8181818182
      0.0909090909       0.5454545455       0.9090909091
      0.0909090909       0.6363636364       0.0000000000
      0.0909090909       0.6363636364       0.0909090909
      0.0909090909       0.6363636364       0.1818181818
      0.0909090909       0.6363636364       0.2727272727
      0.0909090909       0.6363636364       0.3636363636
      0.0909090909       0.6363636364       0.4545454545
      0.0909090909       0.6363636364       0.5454545455
      0.0909090909       0.6363636364       0.6363636364
      0.0909090909       0.6363636364       0.7272727273
      0.0909090909       0.6363636364       0.8181818182
      0.0909090909       0.6363636364       0.9090909091
      0.0909090909       0.7272727273       0.0000000000
      0.0909090909       0.7272727273       0.0909090909
      0.0909090909       0.7272727273       0.1818181818
      0.0909090909       0.7272727273       0.2727272727
      0.0909090909       0.7272727273       0.3636363636
      0.0909090909       0.7272727273       0.4545454545
      0.0909090909       0.7272727273       0.5454545455
      0.0909090909       0.7272727273       0.6363636364
      0.0909090909       0.7272727273       0.7272727273
      0.0909090909       0.7272727273       0.8181818182
      0.0909090909       0.7272727273       0.9090909091
      0.0909090909       0.8181818182       0.0000000000
      0.0909090909       0.8181818182       0.0909090909
      0.0909090909       0.8181818182       0.1818181818
      0.0909090909       0.8181818182       0.2727272727
      0.0909090909       0.8181818182       0.3636363636
      0.0909090909       0.8181818182       0.4545454545
      0.0909090909       0.8181818182       0.5454545455
      0.0909090909       0.8181818182       0.6363636364
      0.0909090909       0.8181818182       0.7272727273
      0.0909090909       0.8181818182       0.8181818182
      0.0909090909       0.8181818182       0.9090909091
      0.0909090909       0.9090909091       0.0000000000
      0.0909090909       0.9090909091       0.0909090909
      0.0909090909       0.9090909091       0.1818181818
      0.0909090909       0.9090909091       0.2727272727
      0.0909090909       0.9090909091       0.3636363636
      0.0909090909       0.9090909091       0.4545454545
      0.0909090909       0.9090909091       0.5454545455
      0.0909090909       0.9090909091       0.6363636364
      0.0909090909       0.9090909091       0.7272727273
      0.0909090909       0.9090909091       0.8181818182
      0.0909090909       0.9090909091       0.9090909091
      0.1818181818       0.0000000000       0.0000000000
      0.1818181818       0.0000000000       0.0909090909
      0.1818181818       0.0000000000       0.1818181818
      0.1818181818       0.0000000000       0.2727272727
      0.1818181818       0.0000000000       0.3636363636
      0.1818181818       0.0000000000       0.4545454545
      0.1818181818       0.0000000000       0.5454545455
      0.1818181818       0.0000000000       0.6363636364
      0.1818181818       0.0000000000       0.7272727273
      0.1818181818       0.0000000000       0.8181818182
      0.1818181818       0.0000000000       0.9090909091
      0.1818181818       0.0909090909       0.0000000000
      0.1818181818       0.0909090909       0.0909090909
      0.1818181818       0.0909090909       0.1818181818
      0.1818181818       0.0909090909       0.2727272727
      0.1818181818       0.0909090909       0.3636363636
      0.1818181818       0.0909090909       0.4545454545
      0.1818181818       0.0909090909       0.5454545455
      0.1818181818       0.0909090909       0.6363636364
      0.1818181818       0.0909090909       0.7272727273
      0.1818181818       0.0909090909       0.8181818182
      0.1818181818       0.0909090909       0.9090909091
      0.1818181818       0.1818181818       0.0000000000
      0.1818181818       0.1818181818       0.0909090909
      0.1818181818       0.1818181818       0.1818181818
      0.1818181818       0.1818181818       0.2727272727
      0.1818181818       0.1818181818       0.3636363636
      0.1818181818       0.1818181818       0.4545454545
      0.1818181818       0.1818181818       0.5454545455
      0.1818181818       0.1818181818       0.6363636364
      0.1818181818       0.1818181818       0.7272727273
      0.1818181818       0.1818181818       0.8181818182
      0.1818181818       0.1818181818       0.9090909091
      0.1818181818       0.2727272727       0.0000000000
      0.1818181818       0.2727272727       0.0909090909
      0.1818181818       0.2727272727       0.1818181818
      0.1818181818       0.2727272727       0.2727272727
      0.1818181818       0.2727272727       0.3636363636
      0.1818181818       0.2727272727       0.4545454545
      0.1818181818       0.2727272727       0.5454545455
      0.1818181818       0.2727272727       0.6363636364
      0.1818181818       0.2727272727       0.7272727273
      0.1818181818       0.2727272727       0.8181818182
      0.1818181818       0.2727272727       0.9090909091
      0.1818181818       0.3636363636       0.0000000000
      0.1818181818       0.3636363636       0.0909090909
      0.1818181818       0.3636363636       0.1818181818
      0.1818181818       0.3636363636       0.2727272727
      0.1818181818       0.3636363636       0.3636363636
      0.1818181818       0.3636363636       0.4545454545
      0.1818181818       0.3636363636       0.5454545455
      0.1818181818       0.3636363636       0.6363636364
      0.1818181818       0.3636363636       0.7272727273
      0.1818181818       0.3636363636       0.8181818182
      0.1818181818       0.3636363636       0.9090909091
      0.1818181818       0.4545454545       0.0000000000
      0.1818181818       0.4545454545       0.0909090909
      0.1818181818       0.4545454545       0.1818181818
      0.1818181818       0.4545454545       0.2727272727
      0.1818181818       0.4545454545       0.3636363636
      0.1818181818       0.4545454545       0.4545454545
      0.1818181818       0.4545454545       0.5454545455
      0.1818181818       0.4545454545       0.6363636364
      0.1818181818       0.4545454545       0.7272727273
      0.1818181818       0.4545454545       0.8181818182
      0.1818181818       0.4545454545       0.9090909091
      0.1818181818       0.5454545455       0.0000000000
      0.1818181818       0.5454545455       0.0909090909
      0.1818181818       0.5454545455       0.1818181818
      0.1818181818       0.5454545455       0.2727272727
      0.1818181818       0.5454545455       0.3636363636
      0.1818181818       0.5454545455       0.4545454545
      0.1818181818       0.5454545455       0.5454545455
      0.1818181818       0.5454545455       0.6363636364
      0.1818181818       0.5454545455       0.7272727273
      0.1818181818       0.5454545455       0.8181818182
      0.1818181818       0.5454545455       0.9090909091
      0.1818181818       0.6363636364       0.0000000000
      0.1818181818       0.6363636364       0.0909090909
      0.1818181818       0.6363636364       0.1818181818
      0.1818181818       0.6363636364       0.2727272727
      0.1818181818       0.6363636364       0.3636363636
      0.1818181818       0.6363636364       0.4545454545
      0.1818181818       0.6363636364       0.5454545455
      0.1818181818       0.6363636364       0.6363636364
      0.1818181818       0.6363636364       0.7272727273
      0.1818181818       0.6363636364       0.8181818182
      0.1818181818       0.6363636364       0.9090909091
      0.1818181818       0.7272727273       0.0000000000
      0.1818181818       0.7272727273       0.0909090909
      0.1818181818       0.7272727273       0.1818181818
      0.1818181818       0.7272727273       0.2727272727
      0.1818181818       0.7272727273       0.3636363636
      0.1818181818       0.7272727273       0.4545454545
      0.1818181818       0.7272727273       0.5454545455
      0.1818181818       0.7272727273       0.6363636364
      0.1818181818       0.7272727273       0.7272727273
      0.1818181818       0.7272727273       0.8181818182
      0.1818181818       0.7272727273       0.9090909091
      0.1818181818       0.8181818182       0.0000000000
      0.1818181818       0.8181818182       0.0909090909
      0.1818181818       0.8181818182       0.1818181818
      0.1818181818       0.8181818182       0.2727272727
      0.1818181818       0.8181818182       0.3636363636
      0.1818181818       0.8181818182       0.4545454545
      0.1818181818       0.8181818182       0.5454545455
      0.1818181818       0.8181818182       0.6363636364
      0.1818181818       0.8181818182       0.7272727273
      0.1818181818       0.8181818182       0.8181818182
      0.1818181818       0.8181818182       0.9090909091
      0.1818181818       0.9090909091       0.0000000000
      0.1818181818       0.9090909091       0.0909090909
      0.1818181818       0.9090909091       0.1818181818
      0.1818181818       0.9090909091       0.2727272727
      0.1818181818       0.9090909091       0.3636363636
      0.1818181818       0.9090909091       0.4545454545
      0.1818181818       0.9090909091       0.5454545455
      0.1818181818       0.9090909091       0.6363636364
      0.1818181818       0.9090909091       0.7272727273
      0.1818181818       0.9090909091       0.8181818182
      0.1818181818       0.9090909091       0.9090909091
      0.2727272727       0.0000000000       0.0000000000
      0.2727272727       0.0000000000       0.0909090909
      0.2727272727       0.0000000000       0.1818181818
      0.2727272727       0.0000000000       0.2727272727
      0.2727272727       0.0000000000       0.3636363636
      0.2727272727       0.0000000000       0.4545454545
      0.2727272727       0.0000000000       0.5454545455
      0.2727272727       0.0000000000       0.6363636364
      0.2727272727       0.0000000000       0.7272727273
      0.2727272727       0.0000000000       0.8181818182
      0.2727272727       0.0000000000       0.9090909091
      0.2727272727       0.0909090909       0.0000000000
      0.2727272727       0.0909090909       0.0909090909
      0.2727272727       0.0909090909       0.1818181818
      0.2727272727       0.0909090909       0.2727272727
      0.2727272727       0.0909090909       0.3636363636
      0.2727272727       0.0909090909       0.4545454545
      0.2727272727       0.0909090909       0.5454545455
      0.2727272727       0.0909090909       0.6363636364
      0.2727272727       0.0909090909       0.7272727273
      0.2727272727       0.0909090909       0.8181818182
      0.2727272727       0.0909090909       0.9090909091
      0.2727272727       0.1818181818       0.0000000000
      0.2727272727       0.1818181818       0.0909090909
      0.2727272727       0.1818181818       0.1818181818
      0.2727272727       0.1818181818       0.2727272727
      0.2727272727       0.1818181818       0.3636363636
      0.2727272727       0.1818181818       0.4545454545
      0.2727272727       0.1818181818       0.5454545455
      0.2727272727       0.1818181818       0.6363636364
      0.2727272727       0.1818181818       0.7272727273
      0.2727272727       0.1818181818       0.8181818182
      0.2727272727       0.1818181818       0.9090909091
      0.2727272727       0.2727272727       0.0000000000
      0.2727272727       0.2727272727       0.0909090909
      0.2727272727       0.2727272727       0.1818181818
      0.2727272727       0.2727272727       0.2727272727
      0.2727272727       0.2727272727       0.3636363636
      0.2727272727       0.2727272727       0.4545454545
      0.2727272727       0.2727272727       0.5454545455
      0.2727272727       0.2727272727       0.6363636364
      0.2727272727       0.2727272727       0.7272727273
      0.2727272727       0.2727272727       0.8181818182
      0.2727272727       0.2727272727       0.9090909091
      0.2727272727       0.3636363636       0.0000000000
      0.2727272727       0.3636363636       0.0909090909
      0.2727272727       0.3636363636       0.1818181818
      0.2727272727       0.3636363636       0.2727272727
      0.2727272727       0.3636363636       0.3636363636
      0.2727272727       0.3636363636       0.4545454545
      0.2727272727       0.3636363636       0.5454545455
      0.2727272727       0.3636363636       0.6363636364
      0.2727272727       0.3636363636       0.7272727273
      0.2727272727       0.3636363636       0.8181818182
      0.2727272727       0.3636363636       0.9090909091
      0.2727272727       0.4545454545       0.0000000000
      0.2727272727       0.4545454545       0.0909090909
      0.2727272727       0.4545454545       0.1818181818
      0.2727272727       0.4545454545       0.2727272727
      0.2727272727       0.4545454545       0.3636363636
      0.2727272727       0.4545454545       0.4545454545
      0.2727272727       0.4545454545       0.5454545455
      0.2727272727       0.4545454545       0.6363636364
      0.2727272727       0.4545454545       0.7272727273
      0.2727272727       0.4545454545       0.8181818182
      0.2727272727       0.4545454545       0.9090909091
      0.2727272727       0.5454545455       0.0000000000
      0.2727272727       0.5454545455       0.0909090909
      0.2727272727       0.5454545455       0.1818181818
      0.2727272727       0.5454545455       0.2727272727
      0.2727272727       0.5454545455       0.3636363636
      0.2727272727       0.5454545455       0.4545454545
      0.2727272727       0.5454545455       0.5454545455
      0.2727272727       0.5454545455       0.6363636364
      0.2727272727       0.5454545455       0.7272727273
      0.2727272727       0.5454545455       0.8181818182
      0.2727272727       0.5454545455       0.9090909091
      0.2727272727       0.6363636364       0.0000000000
      0.2727272727       0.6363636364       0.0909090909
      0.2727272727       0.6363636364       0.1818181818
      0.2727272727       0.6363636364       0.2727272727
      0.2727272727       0.6363636364       0.3636363636
      0.2727272727       0.6363636364       0.4545454545
      0.2727272727       0.6363636364       0.5454545455
      0.2727272727       0.6363636364       0.6363636364
      0.2727272727       0.6363636364       0.7272727273
      0.2727272727       0.6363636364       0.8181818182
      0.2727272727       0.6363636364       0.9090909091
      0.2727272727       0.7272727273       0.0000000000
      0.2727272727       0.7272727273       0.0909090909
      0.2727272727       0.7272727273       0.1818181818
      0.2727272727       0.7272727273       0.2727272727
      0.2727272727       0.7272727273       0.3636363636
      0.2727272727       0.7272727273       0.4545454545
      0.2727272727       0.7272727273       0.5454545455
      0.2727272727       0.7272727273       0.6363636364
      0.2727272727       0.7272727273       0.7272727273
      0.2727272727       0.7272727273       0.8181818182
      0.2727272727       0.7272727273       0.9090909091
      0.2727272727       0.8181818182       0.0000000000
      0.2727272727       0.8181818182       0.0909090909
      0.2727272727       0.8181818182       0.1818181818
      0.2727272727       0.8181818182       0.2727272727
      0.2727272727       0.8181818182       0.3636363636
      0.2727272727       0.8181818182       0.4545454545
      0.2727272727       0.8181818182       0.5454545455
      0.2727272727       0.8181818182       0.6363636364
      0.2727272727       0.8181818182       0.7272727273
      0.2727272727       0.8181818182       0.8181818182
      0.2727272727       0.8181818182       0.9090909091
      0.2727272727       0.9090909091       0.0000000000
      0.2727272727       0.9090909091       0.0909090909
      0.2727272727       0.9090909091       0.1818181818
      0.2727272727       0.9090909091       0.2727272727
      0.2727272727       0.9090909091       0.3636363636
      0.2727272727       0.9090909091       0.4545454545
      0.2727272727       0.9090909091       0.5454545455
      0.2727272727       0.9090909091       0.6363636364
      0.2727272727       0.9090909091       0.7272727273
      0.2727272727       0.9090909091       0.8181818182
      0.2727272727       0.9090909091       0.9090909091
      0.3636363636       0.0000000000       0.0000000000
      0.3636363636       0.0000000000       0.0909090909
      0.3636363636       0.0000000000       0.1818181818
      0.3636363636       0.0000000000       0.2727272727
      0.3636363636       0.0000000000       0.3636363636
      0.3636363636       0.0000000000       0.4545454545
      0.3636363636       0.0000000000       0.5454545455
      0.3636363636       0.0000000000       0.6363636364
      0.3636363636       0.0000000000       0.7272727273
      0.3636363636       0.0000000000       0.8181818182
      0.3636363636       0.0000000000       0.9090909091
      0.3636363636       0.0909090909       0.0000000000
      0.3636363636       0.0909090909       0.0909090909
      0.3636363636       0.0909090909       0.1818181818
      0.3636363636       0.0909090909       0.2727272727
      0.3636363636       0.0909090909       0.3636363636
      0.3636363636       0.0909090909       0.4545454545
      0.3636363636       0.0909090909       0.5454545455
      0.3636363636       0.0909090909       0.6363636364
      0.3636363636       0.0909090909       0.7272727273
      0.3636363636       0.0909090909       0.8181818182
      0.3636363636       0.0909090909       0.9090909091
      0.3636363636       0.1818181818       0.0000000000
      0.3636363636       0.1818181818       0.0909090909
      0.3636363636       0.1818181818       0.1818181818
      0.3636363636       0.1818181818       0.2727272727
      0.3636363636       0.1818181818       0.3636363636
      0.3636363636       0.1818181818       0.4545454545
      0.3636363636       0.1818181818       0.5454545455
      0.3636363636       0.1818181818       0.6363636364
      0.3636363636       0.1818181818       0.7272727273
      0.3636363636       0.1818181818       0.8181818182
      0.3636363636       0.1818181818       0.9090909091