&INPUTPP
  atom_proj = .true.
  outdir = './out/'
  prefix = 'aiida'
  seedname = 'aiida'
/
