&CONTROL
  calculation = 'scf'
  etot_conv_thr =   2.0000000000d-05
  forc_conv_thr =   1.0000000000d-04
  max_seconds =   4.1040000000d+04
  outdir = './out/'
  prefix = 'aiida'
  pseudo_dir = './pseudo/'
  tprnfor = .true.
  tstress = .true.
  verbosity = 'high'
/
&SYSTEM
  degauss =   2.0000000000d-02
  ecutrho =   1.2800000000d+02
  ecutwfc =   6.0000000000d+01
  ibrav = 0
  nat = 2
  nosym = .false.
  ntyp = 1
  occupations = 'smearing'
  smearing = 'cold'
/
&ELECTRONS
  conv_thr =   4.0000000000d-10
  electron_maxstep = 80
  mixing_beta =   4.0000000000d-01
/
ATOMIC_SPECIES
Si     28.0855 Si.upf
ATOMIC_POSITIONS angstrom
Si           1.3576305934       1.3576305934       4.0728917803
Si           2.7152611869       2.7152611869       2.7152611869
K_POINTS automatic
14 14 14 0 0 0
CELL_PARAMETERS angstrom
      0.0000000000       2.7152611869       2.7152611869
      2.7152611869       0.0000000000       2.7152611869
      2.7152611869       2.7152611869       0.0000000000
